
100
24770

329 329
984 984
960 960
919 919
790 790
876 876
1 1
627 627
248 248
731 731
433 433
561 561
543 543
577 577
828 828
982 982
346 346
807 807
890 890
393 393
124 124
498 498
765 765
525 525
185 185
706 706
325 325
887 887
169 169
594 594
386 386
985 985
139 139
881 881
418 418
372 372
209 209
495 495
930 930
1000 1000
940 940
612 612
237 237
508 508
650 650
296 296
987 987
85 85
235 235
204 204
168 168
64 64
240 240
374 374
940 940
545 545
625 625
349 349
171 171
564 564
729 729
86 86
650 650
210 210
690 690
356 356
148 148
141 141
793 793
541 541
86 86
906 906
277 277
280 280
3 3
301 301
560 560
898 898
299 299
498 498
80 80
687 687
301 301
376 376
271 271
819 819
981 981
138 138
452 452
107 107
751 751
908 908
127 127
683 683
304 304
451 451
573 573
385 385
652 652
327 327
